
set I:= 2	3	4 5 6	7 	8	9	10	11 12 13	14	15 16	17	18	19	20 21 22 
23 24 25 26 27 28 29 30 31 32 33 34 35 36 37 38 39 40 41 42 43 44 45 46 47 48 49 50 51
52 53 54 55 56 57 58 59 60 61 62 ;

set Nodos:= 1 2	3	4 5 6	7 	8	9	10	11 12 13	14	15 16	17	18	19	20 21 22
23 24 25 26 27 28 29 30 31 32 33 34 35 36 37 38 39 40 41 42 43 44 45 46 47 48 49 50 51
52 53 54 55 56 57 58 59 60 61 62 ;

set K:= 1 2 3;
set R:= A B C;
set T:= A B C;


param: xcoord	ycoord :=
1	2	48
2	64	71
3	33	83
4	77	89
5	96	61
6	53	55
7	38	10
8	7	40
9	7	1
10	73	68
11	4	24
12	82	56
13	30	56
14	38	62
15	42	53
16	5	49
17	1	85
18	94	4
19	50	70
20	35	69
21	14	41
22	94	73
23	23	96
24	96	88
25	74	94
26	68	52
27	73	22
28	92	96
29	4	48
30	24	10
31	52	72
32	61	46
33	38	9
34	90	15
35	58	41
36	93	41
37	8	74
38	13	87
39	34	68
40	84	97
41	35	20
42	96	79
43	73	87
44	21	1
45	28	93
46	55	94
47	56	84
48	68	99
49	30	53
50	85	49
51	85	2
52	0	30
53	12	71
54	26	55
55	72	75
56	71	21
57	33	49
58	51	2
59	93	7
60	70	22
61	54	53
62	26	17



;

param Q:=
1   15000
2   15000
3   15000
;

param P:=
A   10000
B   11000
C   12000
;


param alfa:=
A   1
B    .70
C    .30
;

param q:  A   B   C:=
1	0	0	0
2	1300	0	0
3	0	900	0
4	0	0	800
5	400	0	0
6	0	350	0
7	0	0	550
8	200	0	0
9	0	450	0
10	0	0	450
11	800	0	0
12	0	350	0
13	0	0	300
14	50	0	0
15	0	100	0
16	0	0	1100
17	1150	0	0
18	0	200	0
19	0	0	150
20	1000	0	0
21	0	350	0
22	0	0	50
23	100	0	0
24	0	600	0
25	0	0	1100
26	300	0	0
27	0	550	0
28	0	0	600
29	100	0	0
30	0	700	0
31	0	0	700
32	100	0	0
33	0	450	0
34	0	0	1000
35	100	0	0
36	0	900	0
37	0	0	950
38	900	0	0
39	0	200	0
40	0	0	800
41	1300	0	0
42	0	150	0
43	0	0	1150
44	800	0	0
45	0	500	0
46	0	0	450
47	1050	0	0
48	0	1200	0
49	0	0	1200
50	950	0	0
51	0	600	0
52	0	0	800
53	300	0	0
54	0	100	0
55	0	0	100
56	100	0	0
57	0	1150	0
58	0	0	800
59	1300	0	0
60	0	1050	0
61	0	0	100
62	350	0	0



;

param a:  A   B   C:=
1	0	0	0
2	1	0	0
3	0	1	0
4	0	0	1
5	1	0	0
6	0	1	0
7	0	0	1
8	1	0	0
9	0	1	0
10	0	0	1
11	1	0	0
12	0	1	0
13	0	0	1
14	1	0	0
15	0	1	0
16	0	0	1
17	1	0	0
18	0	1	0
19	0	0	1
20	1	0	0
21	0	1	0
22	0	0	1
23	1	0	0
24	0	1	0
25	0	0	1
26	1	0	0
27	0	1	0
28	0	0	1
29	1	0	0
30	0	1	0
31	0	0	1
32	1	0	0
33	0	1	0
34	0	0	1
35	1	0	0
36	0	1	0
37	0	0	1
38	1	0	0
39	0	1	0
40	0	0	1
41	1	0	0
42	0	1	0
43	0	0	1
44	1	0	0
45	0	1	0
46	0	0	1
47	1	0	0
48	0	1	0
49	0	0	1
50	1	0	0
51	0	1	0
52	0	0	1
53	1	0	0
54	0	1	0
55	0	0	1
56	1	0	0
57	0	1	0
58	0	0	1
59	1	0	0
60	0	1	0
61	0	0	1
62	1	0	0

;

param qu :=
1	0
2	1300
3	900
4	800
5	400
6	350
7	550
8	200
9	450
10	450
11	800
12	350
13	300
14	50
15	100
16	1100
17	1150
18	200
19	150
20	1000
21	350
22	50
23	100
24	600
25	1100
26	300
27	550
28	600
29	100
30	700
31	700
32	100
33	450
34	1000
35	100
36	900
37	950
38	900
39	200
40	800
41	1300
42	150
43	1150
44	800
45	500
46	450
47	1050
48	1200
49	1200
50	950
51	600
52	800
53	300
54	100
55	100
56	100
57	1150
58	800
59	1300
60	1050
61	100
62	350

;

set IT:=
(	2	,	A	)
(	3	,	B	)
(	4	,	C	)
(	5	,	A	)
(	6	,	B	)
(	7	,	C	)
(	8	,	A	)
(	9	,	B	)
(	10	,	C	)
(	11	,	A	)
(	12	,	B	)
(	13	,	C	)
(	14	,	A	)
(	15	,	B	)
(	16	,	C	)
(	17	,	A	)
(	18	,	B	)
(	19	,	C	)
(	20	,	A	)
(	21	,	B	)
(	22	,	C	)
(	23	,	A	)
(	24	,	B	)
(	25	,	C	)
(	26	,	A	)
(	27	,	B	)
(	28	,	C	)
(	29	,	A	)
(	30	,	B	)
(	31	,	C	)
(	32	,	A	)
(	33	,	B	)
(	34	,	C	)
(	35	,	A	)
(	36	,	B	)
(	37	,	C	)
(	38	,	A	)
(	39	,	B	)
(	40	,	C	)
(	41	,	A	)
(	42	,	B	)
(	43	,	C	)
(	44	,	A	)
(	45	,	B	)
(	46	,	C	)
(	47	,	A	)
(	48	,	B	)
(	49	,	C	)
(	50	,	A	)
(	51	,	B	)
(	52	,	C	)
(	53	,	A	)
(	54	,	B	)
(	55	,	C	)
(	56	,	A	)
(	57	,	B	)
(	58	,	C	)
(	59	,	A	)
(	60	,	B	)
(	61	,	C	)
(	62	,	A	)

;